p cnf 22 56
a 8 7 0
e 1 2 3 4 5 6 9 10 11 12 13 14 15 16 17 18 19 20 21 22 0
-1 2 -3 0
1 -2 -3 0
-1 -2 3 0
1 2 3 0
-4 -5 -6 0
4 5 -6 0
-4 5 6 0
4 -5 6 0
7 3 0
7 6 0
-3 -6 -7 0
8 4 0
8 -2 0
-4 2 -8 0
-10 11 -12 0
10 -11 -12 0
-10 -11 12 0
10 11 12 0
-9 -12 -13 0
9 12 -13 0
-9 12 13 0
9 -12 13 0
13 -5 -14 0
-13 5 -14 0
13 5 14 0
-13 -5 14 0
-5 14 -15 0
5 -14 -15 0
-5 -14 15 0
5 14 15 0
4 16 -17 0
-4 -16 -17 0
4 -16 17 0
-4 16 17 0
15 17 -18 0
-15 -17 -18 0
15 -17 18 0
-15 17 18 0
-19 8 0
-19 -18 0
-8 18 19 0
20 -1 0
20 -2 0
1 2 -20 0
21 19 0
21 -20 0
-19 20 -21 0
22 -7 0
22 21 0
7 -21 -22 0
1 17 7 0
8 -20 -11 17 -13 0
-6 20 -1 5 -14 0
21 9 -3 0
17 -22 -12 -3 -7 15 0
22 0
